Maximize
F - ff - gg

Subject to
F - f1 - f2 - f3 - f4 = 0
f1 - 10X1 - 40X10 - 10X112 - 10X165 = 0
f2 - 5.0Y1 = 0
f3 - 3.0Z165 = 0
f4 - 8.0V10 - 2.0V112 - 2.0V165 = 0

ff - 0.017373s1 - 0.017373s10 - 0.017373s112 - 0.017373s165 
- 0.017373t1 
- 0.017373u165 
- 0.017373r10 - 0.017373r112 - 0.017373r165 
= 0
gg - 1.897799Y1 
- 2.710534Z165 
- 2.922795V10 - 3.368499V112 - 2.266534V165 = 0

n1 - X1 - X10 - X112 - X165 = 0
n2 - Y1 = 0
n3 - Z165 = 0
n4 - V10 - V112 - V165 = 0

X1 + Y1 <= 1

X165 + Z165 <= 1

X10 + V10 <= 1
X112 + V112 <= 1
X165 + V165 <= 1



x86x1x1 + x86x10x1 
+ y86y1y1 
<= 1

x126x1x1 + x126x10x1 
+ y126y1y1 
<= 1
x41x1x1 + x41x10x1 
+ y41y1y1 
<= 2
x9x1x1 + x9x10x1 
+ y9y1y1 
<= 1

x97x1x1 + x97x10x1 
+ y97y1y1 
<= 1


x80x1x2 + x80x10x2 + x80x112x2 + x80x165x2 
+ y80y1y2 
<= 1
x86x1x2 + x86x10x2 + x86x112x2 + x86x165x2 
+ y86y1y2 
<= 1
x107x1x2 + x107x10x2 + x107x112x2 + x107x165x2 
+ y107y1y2 
<= 1
x126x1x2 + x126x10x2 + x126x112x2 + x126x165x2 
+ y126y1y2 
<= 1


x149x1x2 + x149x10x2 + x149x112x2 + x149x165x2 
+ y149y1y2 
<= 1
x97x1x2 + x97x10x2 + x97x112x2 + x97x165x2 
+ y97y1y2 
<= 1

x6x112x3 

<= 1
x80x112x3 

<= 1

x107x112x3 

<= 1


x9x112x3 

<= 1
x149x112x3 

<= 1

x152x112x3 

<= 1


x86x1x1 + x86x10x1 

<= 1

x126x1x1 + x126x10x1 

<= 1
x41x1x1 + x41x10x1 

<= 2
x9x1x1 + x9x10x1 

<= 1

x97x1x1 + x97x10x1 

<= 1


x80x1x2 + x80x10x2 + x80x112x2 + x80x165x2 
+ z80z165z2 
<= 1
x86x1x2 + x86x10x2 + x86x112x2 + x86x165x2 
+ z86z165z2 
<= 1
x107x1x2 + x107x10x2 + x107x112x2 + x107x165x2 
+ z107z165z2 
<= 1
x126x1x2 + x126x10x2 + x126x112x2 + x126x165x2 
+ z126z165z2 
<= 1


x149x1x2 + x149x10x2 + x149x112x2 + x149x165x2 
+ z149z165z2 
<= 1
x97x1x2 + x97x10x2 + x97x112x2 + x97x165x2 
+ z97z165z2 
<= 1

x6x112x3 

<= 1
x80x112x3 

<= 1

x107x112x3 

<= 1


x9x112x3 

<= 1
x149x112x3 

<= 1

x152x112x3 

<= 1


x86x1x1 + x86x10x1 
+ v86v10v1 
<= 1

x126x1x1 + x126x10x1 
+ v126v10v1 
<= 1
x41x1x1 + x41x10x1 
+ v41v10v1 
<= 2
x9x1x1 + x9x10x1 
+ v9v10v1 
<= 1

x97x1x1 + x97x10x1 
+ v97v10v1 
<= 1


x80x1x2 + x80x10x2 + x80x112x2 + x80x165x2 
+ v80v10v2 + v80v112v2 + v80v165v2 
<= 1
x86x1x2 + x86x10x2 + x86x112x2 + x86x165x2 
+ v86v10v2 + v86v112v2 + v86v165v2 
<= 1
x107x1x2 + x107x10x2 + x107x112x2 + x107x165x2 
+ v107v10v2 + v107v112v2 + v107v165v2 
<= 1
x126x1x2 + x126x10x2 + x126x112x2 + x126x165x2 
+ v126v10v2 + v126v112v2 + v126v165v2 
<= 1


x149x1x2 + x149x10x2 + x149x112x2 + x149x165x2 
+ v149v10v2 + v149v112v2 + v149v165v2 
<= 1
x97x1x2 + x97x10x2 + x97x112x2 + x97x165x2 
+ v97v10v2 + v97v112v2 + v97v165v2 
<= 1

x6x112x3 
+ v6v112v3 
<= 1
x80x112x3 
+ v80v112v3 
<= 1

x107x112x3 
+ v107v112v3 
<= 1


x9x112x3 
+ v9v112v3 
<= 1
x149x112x3 
+ v149v112v3 
<= 1

x152x112x3 
+ v152v112v3 
<= 1
x86x1x1 + x126x1x1 + x41x1x1 + x9x1x1 + x97x1x1 
+ y86y1y1 + y126y1y1 + y41y1y1 + y9y1y1 + y97y1y1 + y10y1y1 
= 0
x80x1x2 + x86x1x2 + x107x1x2 + x126x1x2 + x149x1x2 + x97x1x2 
+ y80y1y2 + y86y1y2 + y107y1y2 + y126y1y2 + y149y1y2 + y97y1y2 + y10y1y2 + y112y1y2 + y165y1y2 
= 0

x86x10x1 + x126x10x1 + x41x10x1 + x9x10x1 + x97x10x1 
- y10y1y1 - y10y0y1
= 0
x80x10x2 + x86x10x2 + x107x10x2 + x126x10x2 + x149x10x2 + x97x10x2 + x112x10x2 
- y10y1y2 - y10y0y2
= 0

x80x112x2 + x86x112x2 + x107x112x2 + x126x112x2 + x149x112x2 + x97x112x2 
- x112x10x2 
- y112y1y2 - y112y0y2
= 0
x6x112x3 + x80x112x3 + x107x112x3 + x9x112x3 + x149x112x3 + x152x112x3 
= 0

x80x165x2 + x86x165x2 + x107x165x2 + x126x165x2 + x149x165x2 + x97x165x2 
- y165y1y2 - y165y0y2
= 0


x86x1x1 + x126x1x1 + x41x1x1 + x9x1x1 + x97x1x1 
= 0
x80x1x2 + x86x1x2 + x107x1x2 + x126x1x2 + x149x1x2 + x97x1x2 
- z1z165z2 - z1z0z2
= 0

x86x10x1 + x126x10x1 + x41x10x1 + x9x10x1 + x97x10x1 
= 0
x80x10x2 + x86x10x2 + x107x10x2 + x126x10x2 + x149x10x2 + x97x10x2 + x112x10x2 
- z10z165z2 - z10z0z2
= 0

x80x112x2 + x86x112x2 + x107x112x2 + x126x112x2 + x149x112x2 + x97x112x2 
- x112x10x2 
- z112z165z2 - z112z0z2
= 0
x6x112x3 + x80x112x3 + x107x112x3 + x9x112x3 + x149x112x3 + x152x112x3 
= 0

x80x165x2 + x86x165x2 + x107x165x2 + x126x165x2 + x149x165x2 + x97x165x2 
+ z80z165z2 + z86z165z2 + z107z165z2 + z126z165z2 + z149z165z2 + z97z165z2 + z1z165z2 + z10z165z2 + z112z165z2 
= 0


x86x1x1 + x126x1x1 + x41x1x1 + x9x1x1 + x97x1x1 
- v1v10v1 - v1v0v1
= 0
x80x1x2 + x86x1x2 + x107x1x2 + x126x1x2 + x149x1x2 + x97x1x2 
- v1v10v2 - v1v112v2 - v1v165v2 - v1v0v2
= 0

x86x10x1 + x126x10x1 + x41x10x1 + x9x10x1 + x97x10x1 
+ v86v10v1 + v126v10v1 + v41v10v1 + v9v10v1 + v97v10v1 + v1v10v1 
= 0
x80x10x2 + x86x10x2 + x107x10x2 + x126x10x2 + x149x10x2 + x97x10x2 + x112x10x2 
+ v80v10v2 + v86v10v2 + v107v10v2 + v126v10v2 + v149v10v2 + v97v10v2 + v1v10v2 + v112v10v2 
- v10v165v2 - v10v0v2
= 0

x80x112x2 + x86x112x2 + x107x112x2 + x126x112x2 + x149x112x2 + x97x112x2 
+ v80v112v2 + v86v112v2 + v107v112v2 + v126v112v2 + v149v112v2 + v97v112v2 + v1v112v2 
- x112x10x2 
- v112v10v2 - v112v165v2 - v112v0v2
= 0
x6x112x3 + x80x112x3 + x107x112x3 + x9x112x3 + x149x112x3 + x152x112x3 
+ v6v112v3 + v80v112v3 + v107v112v3 + v9v112v3 + v149v112v3 + v152v112v3 
= 0

x80x165x2 + x86x165x2 + x107x165x2 + x126x165x2 + x149x165x2 + x97x165x2 
+ v80v165v2 + v86v165v2 + v107v165v2 + v126v165v2 + v149v165v2 + v97v165v2 + v1v165v2 + v10v165v2 + v112v165v2 
= 0


1X1 - x86x1x1 - x126x1x1 - x41x1x1 - x9x1x1 - x97x1x1 = 0
1X1 - x80x1x2 - x86x1x2 - x107x1x2 - x126x1x2 - x149x1x2 - x97x1x2 = 0
1X10 - x86x10x1 - x126x10x1 - x41x10x1 - x9x10x1 - x97x10x1 = 0
1X10 - x80x10x2 - x86x10x2 - x107x10x2 - x126x10x2 - x149x10x2 - x97x10x2 - x112x10x2 = 0
1X112 - x80x112x2 - x86x112x2 - x107x112x2 - x126x112x2 - x149x112x2 - x97x112x2 = 0
1X112 - x6x112x3 - x80x112x3 - x107x112x3 - x9x112x3 - x149x112x3 - x152x112x3 = 0
2X165 - x80x165x2 - x86x165x2 - x107x165x2 - x126x165x2 - x149x165x2 - x97x165x2 = 0

1Y1 - y86y1y1 - y126y1y1 - y41y1y1 - y9y1y1 - y97y1y1 - y10y1y1 = 0
1Y1 - y80y1y2 - y86y1y2 - y107y1y2 - y126y1y2 - y149y1y2 - y97y1y2 - y10y1y2 - y112y1y2 - y165y1y2 = 0

2Z165 - z80z165z2 - z86z165z2 - z107z165z2 - z126z165z2 - z149z165z2 - z97z165z2 - z1z165z2 - z10z165z2 - z112z165z2 = 0

1V10 - v86v10v1 - v126v10v1 - v41v10v1 - v9v10v1 - v97v10v1 - v1v10v1 = 0
1V10 - v80v10v2 - v86v10v2 - v107v10v2 - v126v10v2 - v149v10v2 - v97v10v2 - v1v10v2 - v112v10v2 = 0
1V112 - v80v112v2 - v86v112v2 - v107v112v2 - v126v112v2 - v149v112v2 - v97v112v2 - v1v112v2 = 0
1V112 - v6v112v3 - v80v112v3 - v107v112v3 - v9v112v3 - v149v112v3 - v152v112v3 = 0
2V165 - v80v165v2 - v86v165v2 - v107v165v2 - v126v165v2 - v149v165v2 - v97v165v2 - v1v165v2 - v10v165v2 - v112v165v2 = 0


s6 - s112 + 5.480459a6a112a3 <= 4.00
s80 - s1 + 5.754345a80a1a2 <= 4.32
s80 - s10 + 6.222221a80a10a2 <= 4.32
s80 - s112 + 6.241230a80a112a2 <= 4.32
s80 - s112 + 6.241230a80a112a3 <= 4.32
s80 - s165 + 6.050731a80a165a2 <= 4.32
s86 - s1 + 5.743758a86a1a1 <= 4.57
s86 - s1 + 5.743758a86a1a2 <= 4.57
s86 - s10 + 6.188114a86a10a1 <= 4.57
s86 - s10 + 6.188114a86a10a2 <= 4.57
s86 - s112 + 6.206657a86a112a2 <= 4.57
s86 - s165 + 6.018030a86a165a2 <= 4.57
s107 - s1 + 7.198788a107a1a2 <= 5.67
s107 - s10 + 6.928314a107a10a2 <= 5.67
s107 - s112 + 6.869983a107a112a2 <= 5.67
s107 - s112 + 6.869983a107a112a3 <= 5.67
s107 - s165 + 6.967943a107a165a2 <= 5.67
s126 - s1 + 6.076694a126a1a1 <= 4.97
s126 - s1 + 6.076694a126a1a2 <= 4.97
s126 - s10 + 6.349517a126a10a1 <= 4.97
s126 - s10 + 6.349517a126a10a2 <= 4.97
s126 - s112 + 6.378272a126a112a2 <= 4.97
s126 - s165 + 6.175657a126a165a2 <= 4.97
s41 - s1 + 6.233740a41a1a1 <= 4.95
s41 - s10 + 6.254860a41a10a1 <= 4.95
s9 - s1 + 6.549473a9a1a1 <= 5.05
s9 - s10 + 6.269974a9a10a1 <= 5.05
s9 - s112 + 6.215429a9a112a3 <= 5.05
s149 - s1 + 7.240132a149a1a2 <= 5.71
s149 - s10 + 6.925766a149a10a2 <= 5.71
s149 - s112 + 6.864684a149a112a2 <= 5.71
s149 - s112 + 6.864684a149a112a3 <= 5.71
s149 - s165 + 6.986372a149a165a2 <= 5.71
s97 - s1 + 6.515960a97a1a1 <= 5.31
s97 - s1 + 6.515960a97a1a2 <= 5.31
s97 - s10 + 6.598199a97a10a1 <= 5.31
s97 - s10 + 6.598199a97a10a2 <= 5.31
s97 - s112 + 6.623936a97a112a2 <= 5.31
s97 - s165 + 6.427883a97a165a2 <= 5.31
s152 - s112 + 5.182219a152a112a3 <= 3.54
s112 - s10 + 7.499602a112a10a2 <= 6.43

t80 - t1 + 5.754345b80b1b2 <= 4.32
t86 - t1 + 5.743758b86b1b1 <= 4.57
t86 - t1 + 5.743758b86b1b2 <= 4.57
t107 - t1 + 7.198788b107b1b2 <= 5.67
t126 - t1 + 6.076694b126b1b1 <= 4.97
t126 - t1 + 6.076694b126b1b2 <= 4.97
t41 - t1 + 6.233740b41b1b1 <= 4.95
t9 - t1 + 6.549473b9b1b1 <= 5.05
t149 - t1 + 7.240132b149b1b2 <= 5.71
t97 - t1 + 6.515960b97b1b1 <= 5.31
t97 - t1 + 6.515960b97b1b2 <= 5.31
t10 - t1 + 21.483736b10b1b1 <= 20.00
t10 - t1 + 21.483736b10b1b2 <= 20.00
t112 - t1 + 21.515795b112b1b2 <= 20.00
t165 - t1 + 21.309265b165b1b2 <= 20.00

u80 - u165 + 6.050731c80c165c2 <= 4.32
u86 - u165 + 6.018030c86c165c2 <= 4.57
u107 - u165 + 6.967943c107c165c2 <= 5.67
u126 - u165 + 6.175657c126c165c2 <= 4.97
u149 - u165 + 6.986372c149c165c2 <= 5.71
u97 - u165 + 6.427883c97c165c2 <= 5.31
u1 - u165 + 21.309265c1c165c2 <= 20.00
u10 - u165 + 21.174484c10c165c2 <= 20.00
u112 - u165 + 21.211870c112c165c2 <= 20.00

r6 - r112 + 5.480459d6d112d3 <= 4.00
r80 - r10 + 6.222221d80d10d2 <= 4.32
r80 - r112 + 6.241230d80d112d2 <= 4.32
r80 - r112 + 6.241230d80d112d3 <= 4.32
r80 - r165 + 6.050731d80d165d2 <= 4.32
r86 - r10 + 6.188114d86d10d1 <= 4.57
r86 - r10 + 6.188114d86d10d2 <= 4.57
r86 - r112 + 6.206657d86d112d2 <= 4.57
r86 - r165 + 6.018030d86d165d2 <= 4.57
r107 - r10 + 6.928314d107d10d2 <= 5.67
r107 - r112 + 6.869983d107d112d2 <= 5.67
r107 - r112 + 6.869983d107d112d3 <= 5.67
r107 - r165 + 6.967943d107d165d2 <= 5.67
r126 - r10 + 6.349517d126d10d1 <= 4.97
r126 - r10 + 6.349517d126d10d2 <= 4.97
r126 - r112 + 6.378272d126d112d2 <= 4.97
r126 - r165 + 6.175657d126d165d2 <= 4.97
r41 - r10 + 6.254860d41d10d1 <= 4.95
r9 - r10 + 6.269974d9d10d1 <= 5.05
r9 - r112 + 6.215429d9d112d3 <= 5.05
r149 - r10 + 6.925766d149d10d2 <= 5.71
r149 - r112 + 6.864684d149d112d2 <= 5.71
r149 - r112 + 6.864684d149d112d3 <= 5.71
r149 - r165 + 6.986372d149d165d2 <= 5.71
r97 - r10 + 6.598199d97d10d1 <= 5.31
r97 - r10 + 6.598199d97d10d2 <= 5.31
r97 - r112 + 6.623936d97d112d2 <= 5.31
r97 - r165 + 6.427883d97d165d2 <= 5.31
r152 - r112 + 5.182219d152d112d3 <= 3.54
r1 - r10 + 21.483736d1d10d1 <= 20.00
r1 - r10 + 21.483736d1d10d2 <= 20.00
r1 - r112 + 21.515795d1d112d2 <= 20.00
r1 - r165 + 21.309265d1d165d2 <= 20.00
r10 - r165 + 7.754483d10d165d2 <= 6.58
r112 - r10 + 7.499602d112d10d2 <= 6.43
r112 - r165 + 7.641870d112d165d2 <= 6.43

x86x1x1 + x126x1x1 + x41x1x1 + x9x1x1 + x97x1x1 + x80x1x2 + x86x1x2 + x107x1x2 + x126x1x2 + x149x1x2 + x97x1x2 

- 2w1 <= 0

x86x10x1 + x126x10x1 + x41x10x1 + x9x10x1 + x97x10x1 + x80x10x2 + x86x10x2 + x107x10x2 + x126x10x2 + x149x10x2 + x97x10x2 + x112x10x2 

- 2w10 <= 0

x80x112x2 + x86x112x2 + x107x112x2 + x126x112x2 + x149x112x2 + x97x112x2 + x6x112x3 + x80x112x3 + x107x112x3 + x9x112x3 + x149x112x3 + x152x112x3 
- x112x10x2 
- 2w112 <= 0

x80x165x2 + x86x165x2 + x107x165x2 + x126x165x2 + x149x165x2 + x97x165x2 

- 2w165 <= 0

x86x1x1 + x126x1x1 + x41x1x1 + x9x1x1 + x97x1x1 + x80x1x2 + x86x1x2 + x107x1x2 + x126x1x2 + x149x1x2 + x97x1x2 

- w1 >= 0

x86x10x1 + x126x10x1 + x41x10x1 + x9x10x1 + x97x10x1 + x80x10x2 + x86x10x2 + x107x10x2 + x126x10x2 + x149x10x2 + x97x10x2 + x112x10x2 

- w10 >= 0

x80x112x2 + x86x112x2 + x107x112x2 + x126x112x2 + x149x112x2 + x97x112x2 + x6x112x3 + x80x112x3 + x107x112x3 + x9x112x3 + x149x112x3 + x152x112x3 
- x112x10x2 
- w112 >= 0

x80x165x2 + x86x165x2 + x107x165x2 + x126x165x2 + x149x165x2 + x97x165x2 

- w165 >= 0

s6 - t6 + 4.00w6 <= 4.00
s80 - t80 + 4.32w80 <= 4.32
s86 - t86 + 4.57w86 <= 4.57
s107 - t107 + 5.67w107 <= 5.67
s126 - t126 + 4.97w126 <= 4.97
s41 - t41 + 4.95w41 <= 4.95
s9 - t9 + 5.05w9 <= 5.05
s149 - t149 + 5.71w149 <= 5.71
s97 - t97 + 5.31w97 <= 5.31
s152 - t152 + 3.54w152 <= 3.54
s1 - t1 + 6.24w1 <= 6.24
s10 - t10 + 6.58w10 <= 6.58
s112 - t112 + 6.43w112 <= 6.43
s165 - t165 + 6.14w165 <= 6.14
s6 - u6 + 4.00w6 <= 4.00
s80 - u80 + 4.32w80 <= 4.32
s86 - u86 + 4.57w86 <= 4.57
s107 - u107 + 5.67w107 <= 5.67
s126 - u126 + 4.97w126 <= 4.97
s41 - u41 + 4.95w41 <= 4.95
s9 - u9 + 5.05w9 <= 5.05
s149 - u149 + 5.71w149 <= 5.71
s97 - u97 + 5.31w97 <= 5.31
s152 - u152 + 3.54w152 <= 3.54
s1 - u1 + 6.24w1 <= 6.24
s10 - u10 + 6.58w10 <= 6.58
s112 - u112 + 6.43w112 <= 6.43
s165 - u165 + 6.14w165 <= 6.14
s6 - r6 + 4.00w6 <= 4.00
s80 - r80 + 4.32w80 <= 4.32
s86 - r86 + 4.57w86 <= 4.57
s107 - r107 + 5.67w107 <= 5.67
s126 - r126 + 4.97w126 <= 4.97
s41 - r41 + 4.95w41 <= 4.95
s9 - r9 + 5.05w9 <= 5.05
s149 - r149 + 5.71w149 <= 5.71
s97 - r97 + 5.31w97 <= 5.31
s152 - r152 + 3.54w152 <= 3.54
s1 - r1 + 6.24w1 <= 6.24
s10 - r10 + 6.58w10 <= 6.58
s112 - r112 + 6.43w112 <= 6.43
s165 - r165 + 6.14w165 <= 6.14

s6 - t6 - 4.00w6 >= -4.00
s80 - t80 - 4.32w80 >= -4.32
s86 - t86 - 4.57w86 >= -4.57
s107 - t107 - 5.67w107 >= -5.67
s126 - t126 - 4.97w126 >= -4.97
s41 - t41 - 4.95w41 >= -4.95
s9 - t9 - 5.05w9 >= -5.05
s149 - t149 - 5.71w149 >= -5.71
s97 - t97 - 5.31w97 >= -5.31
s152 - t152 - 3.54w152 >= -3.54
s1 - t1 - 6.24w1 >= -6.24
s10 - t10 - 20.00w10 >= -20.00
s112 - t112 - 20.00w112 >= -20.00
s165 - t165 - 20.00w165 >= -20.00


s6 - u6 - 4.00w6 >= -4.00
s80 - u80 - 4.32w80 >= -4.32
s86 - u86 - 4.57w86 >= -4.57
s107 - u107 - 5.67w107 >= -5.67
s126 - u126 - 4.97w126 >= -4.97
s41 - u41 - 4.95w41 >= -4.95
s9 - u9 - 5.05w9 >= -5.05
s149 - u149 - 5.71w149 >= -5.71
s97 - u97 - 5.31w97 >= -5.31
s152 - u152 - 3.54w152 >= -3.54
s1 - u1 - 20.00w1 >= -20.00
s10 - u10 - 20.00w10 >= -20.00
s112 - u112 - 20.00w112 >= -20.00
s165 - u165 - 6.14w165 >= -6.14


s6 - r6 - 4.00w6 >= -4.00
s80 - r80 - 4.32w80 >= -4.32
s86 - r86 - 4.57w86 >= -4.57
s107 - r107 - 5.67w107 >= -5.67
s126 - r126 - 4.97w126 >= -4.97
s41 - r41 - 4.95w41 >= -4.95
s9 - r9 - 5.05w9 >= -5.05
s149 - r149 - 5.71w149 >= -5.71
s97 - r97 - 5.31w97 >= -5.31
s152 - r152 - 3.54w152 >= -3.54
s1 - r1 - 20.00w1 >= -20.00
s10 - r10 - 6.58w10 >= -6.58
s112 - r112 - 6.43w112 >= -6.43
s165 - r165 - 6.78w165 >= -6.78


s1 + 6.24a80a1a2 <= 12.24
s1 + 6.24a86a1a1 <= 12.24
s1 + 6.24a86a1a2 <= 12.24
s1 + 6.24a107a1a2 <= 12.24
s1 + 6.24a126a1a1 <= 12.24
s1 + 6.24a126a1a2 <= 12.24
s1 + 6.24a41a1a1 <= 12.24
s1 + 6.24a9a1a1 <= 12.24
s1 + 6.24a149a1a2 <= 12.24
s1 + 6.24a97a1a1 <= 12.24
s1 + 6.24a97a1a2 <= 12.24
s10 + 6.58a80a10a2 <= 12.58
s10 + 6.58a86a10a1 <= 12.58
s10 + 6.58a86a10a2 <= 12.58
s10 + 6.58a107a10a2 <= 12.58
s10 + 6.58a126a10a1 <= 12.58
s10 + 6.58a126a10a2 <= 12.58
s10 + 6.58a41a10a1 <= 12.58
s10 + 6.58a9a10a1 <= 12.58
s10 + 6.58a149a10a2 <= 12.58
s10 + 6.58a97a10a1 <= 12.58
s10 + 6.58a97a10a2 <= 12.58
s10 + 6.58a112a10a2 <= 12.58
s112 + 6.43a6a112a3 <= 12.43
s112 + 6.43a80a112a2 <= 12.43
s112 + 6.43a80a112a3 <= 12.43
s112 + 6.43a86a112a2 <= 12.43
s112 + 6.43a107a112a2 <= 12.43
s112 + 6.43a107a112a3 <= 12.43
s112 + 6.43a126a112a2 <= 12.43
s112 + 6.43a9a112a3 <= 12.43
s112 + 6.43a149a112a2 <= 12.43
s112 + 6.43a149a112a3 <= 12.43
s112 + 6.43a97a112a2 <= 12.43
s112 + 6.43a152a112a3 <= 12.43
s165 + 6.14a80a165a2 <= 12.14
s165 + 6.14a86a165a2 <= 12.14
s165 + 6.14a107a165a2 <= 12.14
s165 + 6.14a126a165a2 <= 12.14
s165 + 6.14a149a165a2 <= 12.14
s165 + 6.14a97a165a2 <= 12.14

u165 - 6.0c80c165c2 > 0
u165 - 6.0c86c165c2 > 0
u165 - 6.0c107c165c2 > 0
u165 - 6.0c126c165c2 > 0
u165 - 6.0c149c165c2 > 0
u165 - 6.0c97c165c2 > 0
u165 - 6.0c1c165c2 > 0
u165 - 6.0c10c165c2 > 0
u165 - 6.0c112c165c2 > 0

r10 - 6.0d80d10d2 > 0
r10 - 6.0d86d10d1 > 0
r10 - 6.0d86d10d2 > 0
r10 - 6.0d107d10d2 > 0
r10 - 6.0d126d10d1 > 0
r10 - 6.0d126d10d2 > 0
r10 - 6.0d41d10d1 > 0
r10 - 6.0d9d10d1 > 0
r10 - 6.0d149d10d2 > 0
r10 - 6.0d97d10d1 > 0
r10 - 6.0d97d10d2 > 0
r10 - 6.0d1d10d1 > 0
r10 - 6.0d1d10d2 > 0
r10 - 6.0d112d10d2 > 0
r112 - 6.0d6d112d3 > 0
r112 - 6.0d80d112d2 > 0
r112 - 6.0d80d112d3 > 0
r112 - 6.0d86d112d2 > 0
r112 - 6.0d107d112d2 > 0
r112 - 6.0d107d112d3 > 0
r112 - 6.0d126d112d2 > 0
r112 - 6.0d9d112d3 > 0
r112 - 6.0d149d112d2 > 0
r112 - 6.0d149d112d3 > 0
r112 - 6.0d97d112d2 > 0
r112 - 6.0d152d112d3 > 0
r112 - 6.0d1d112d2 > 0
r165 - 6.0d80d165d2 > 0
r165 - 6.0d86d165d2 > 0
r165 - 6.0d107d165d2 > 0
r165 - 6.0d126d165d2 > 0
r165 - 6.0d149d165d2 > 0
r165 - 6.0d97d165d2 > 0
r165 - 6.0d1d165d2 > 0
r165 - 6.0d10d165d2 > 0
r165 - 6.0d112d165d2 > 0


a80a1a2 + b80b1b2 <= 1
a86a1a1 + b86b1b1 <= 1
a86a1a2 + b86b1b2 <= 1
a107a1a2 + b107b1b2 <= 1
a126a1a1 + b126b1b1 <= 1
a126a1a2 + b126b1b2 <= 1
a41a1a1 + b41b1b1 <= 1
a9a1a1 + b9b1b1 <= 1
a149a1a2 + b149b1b2 <= 1
a97a1a1 + b97b1b1 <= 1
a97a1a2 + b97b1b2 <= 1
a80a10a2 + b80b10b2 <= 1
a86a10a1 + b86b10b1 <= 1
a86a10a2 + b86b10b2 <= 1
a107a10a2 + b107b10b2 <= 1
a126a10a1 + b126b10b1 <= 1
a126a10a2 + b126b10b2 <= 1
a41a10a1 + b41b10b1 <= 1
a9a10a1 + b9b10b1 <= 1
a149a10a2 + b149b10b2 <= 1
a97a10a1 + b97b10b1 <= 1
a97a10a2 + b97b10b2 <= 1
a112a10a2 + b112b10b2 <= 1
a6a112a3 + b6b112b3 <= 1
a80a112a2 + b80b112b2 <= 1
a80a112a3 + b80b112b3 <= 1
a86a112a2 + b86b112b2 <= 1
a107a112a2 + b107b112b2 <= 1
a107a112a3 + b107b112b3 <= 1
a126a112a2 + b126b112b2 <= 1
a9a112a3 + b9b112b3 <= 1
a149a112a2 + b149b112b2 <= 1
a149a112a3 + b149b112b3 <= 1
a97a112a2 + b97b112b2 <= 1
a152a112a3 + b152b112b3 <= 1
a80a165a2 + b80b165b2 <= 1
a86a165a2 + b86b165b2 <= 1
a107a165a2 + b107b165b2 <= 1
a126a165a2 + b126b165b2 <= 1
a149a165a2 + b149b165b2 <= 1
a97a165a2 + b97b165b2 <= 1


a80a1a2 + c80c1c2 <= 1
a86a1a1 + c86c1c1 <= 1
a86a1a2 + c86c1c2 <= 1
a107a1a2 + c107c1c2 <= 1
a126a1a1 + c126c1c1 <= 1
a126a1a2 + c126c1c2 <= 1
a41a1a1 + c41c1c1 <= 1
a9a1a1 + c9c1c1 <= 1
a149a1a2 + c149c1c2 <= 1
a97a1a1 + c97c1c1 <= 1
a97a1a2 + c97c1c2 <= 1
a80a10a2 + c80c10c2 <= 1
a86a10a1 + c86c10c1 <= 1
a86a10a2 + c86c10c2 <= 1
a107a10a2 + c107c10c2 <= 1
a126a10a1 + c126c10c1 <= 1
a126a10a2 + c126c10c2 <= 1
a41a10a1 + c41c10c1 <= 1
a9a10a1 + c9c10c1 <= 1
a149a10a2 + c149c10c2 <= 1
a97a10a1 + c97c10c1 <= 1
a97a10a2 + c97c10c2 <= 1
a112a10a2 + c112c10c2 <= 1
a6a112a3 + c6c112c3 <= 1
a80a112a2 + c80c112c2 <= 1
a80a112a3 + c80c112c3 <= 1
a86a112a2 + c86c112c2 <= 1
a107a112a2 + c107c112c2 <= 1
a107a112a3 + c107c112c3 <= 1
a126a112a2 + c126c112c2 <= 1
a9a112a3 + c9c112c3 <= 1
a149a112a2 + c149c112c2 <= 1
a149a112a3 + c149c112c3 <= 1
a97a112a2 + c97c112c2 <= 1
a152a112a3 + c152c112c3 <= 1
a80a165a2 + c80c165c2 <= 1
a86a165a2 + c86c165c2 <= 1
a107a165a2 + c107c165c2 <= 1
a126a165a2 + c126c165c2 <= 1
a149a165a2 + c149c165c2 <= 1
a97a165a2 + c97c165c2 <= 1


a80a1a2 + d80d1d2 <= 1
a86a1a1 + d86d1d1 <= 1
a86a1a2 + d86d1d2 <= 1
a107a1a2 + d107d1d2 <= 1
a126a1a1 + d126d1d1 <= 1
a126a1a2 + d126d1d2 <= 1
a41a1a1 + d41d1d1 <= 1
a9a1a1 + d9d1d1 <= 1
a149a1a2 + d149d1d2 <= 1
a97a1a1 + d97d1d1 <= 1
a97a1a2 + d97d1d2 <= 1
a80a10a2 + d80d10d2 <= 1
a86a10a1 + d86d10d1 <= 1
a86a10a2 + d86d10d2 <= 1
a107a10a2 + d107d10d2 <= 1
a126a10a1 + d126d10d1 <= 1
a126a10a2 + d126d10d2 <= 1
a41a10a1 + d41d10d1 <= 1
a9a10a1 + d9d10d1 <= 1
a149a10a2 + d149d10d2 <= 1
a97a10a1 + d97d10d1 <= 1
a97a10a2 + d97d10d2 <= 1
a112a10a2 + d112d10d2 <= 1
a6a112a3 + d6d112d3 <= 1
a80a112a2 + d80d112d2 <= 1
a80a112a3 + d80d112d3 <= 1
a86a112a2 + d86d112d2 <= 1
a107a112a2 + d107d112d2 <= 1
a107a112a3 + d107d112d3 <= 1
a126a112a2 + d126d112d2 <= 1
a9a112a3 + d9d112d3 <= 1
a149a112a2 + d149d112d2 <= 1
a149a112a3 + d149d112d3 <= 1
a97a112a2 + d97d112d2 <= 1
a152a112a3 + d152d112d3 <= 1
a80a165a2 + d80d165d2 <= 1
a86a165a2 + d86d165d2 <= 1
a107a165a2 + d107d165d2 <= 1
a126a165a2 + d126d165d2 <= 1
a149a165a2 + d149d165d2 <= 1
a97a165a2 + d97d165d2 <= 1

x6x112x3 - 1a6a112a3 <= 0
x80x1x2 - 1a80a1a2 <= 0
x80x10x2 - 1a80a10a2 <= 0
x80x112x2 - 1a80a112a2 <= 0
x80x112x3 - 1a80a112a3 <= 0
x80x165x2 - 2a80a165a2 <= 0
x86x1x1 - 1a86a1a1 <= 0
x86x1x2 - 1a86a1a2 <= 0
x86x10x1 - 1a86a10a1 <= 0
x86x10x2 - 1a86a10a2 <= 0
x86x112x2 - 1a86a112a2 <= 0
x86x165x2 - 2a86a165a2 <= 0
x107x1x2 - 1a107a1a2 <= 0
x107x10x2 - 1a107a10a2 <= 0
x107x112x2 - 1a107a112a2 <= 0
x107x112x3 - 1a107a112a3 <= 0
x107x165x2 - 2a107a165a2 <= 0
x126x1x1 - 1a126a1a1 <= 0
x126x1x2 - 1a126a1a2 <= 0
x126x10x1 - 1a126a10a1 <= 0
x126x10x2 - 1a126a10a2 <= 0
x126x112x2 - 1a126a112a2 <= 0
x126x165x2 - 2a126a165a2 <= 0
x41x1x1 - 1a41a1a1 <= 0
x41x10x1 - 1a41a10a1 <= 0
x9x1x1 - 1a9a1a1 <= 0
x9x10x1 - 1a9a10a1 <= 0
x9x112x3 - 1a9a112a3 <= 0
x149x1x2 - 1a149a1a2 <= 0
x149x10x2 - 1a149a10a2 <= 0
x149x112x2 - 1a149a112a2 <= 0
x149x112x3 - 1a149a112a3 <= 0
x149x165x2 - 2a149a165a2 <= 0
x97x1x1 - 1a97a1a1 <= 0
x97x1x2 - 1a97a1a2 <= 0
x97x10x1 - 1a97a10a1 <= 0
x97x10x2 - 1a97a10a2 <= 0
x97x112x2 - 1a97a112a2 <= 0
x97x165x2 - 2a97a165a2 <= 0
x152x112x3 - 1a152a112a3 <= 0
x112x10x2 - 1a112a10a2 <= 0
y80y1y2 - 1b80b1b2 <= 0
y86y1y1 - 1b86b1b1 <= 0
y86y1y2 - 1b86b1b2 <= 0
y107y1y2 - 1b107b1b2 <= 0
y126y1y1 - 1b126b1b1 <= 0
y126y1y2 - 1b126b1b2 <= 0
y41y1y1 - 1b41b1b1 <= 0
y9y1y1 - 1b9b1b1 <= 0
y149y1y2 - 1b149b1b2 <= 0
y97y1y1 - 1b97b1b1 <= 0
y97y1y2 - 1b97b1b2 <= 0
y10y1y1 - 1b10b1b1 <= 0
y10y1y2 - 1b10b1b2 <= 0
y112y1y2 - 1b112b1b2 <= 0
y165y1y2 - 1b165b1b2 <= 0
z80z165z2 - 2c80c165c2 <= 0
z86z165z2 - 2c86c165c2 <= 0
z107z165z2 - 2c107c165c2 <= 0
z126z165z2 - 2c126c165c2 <= 0
z149z165z2 - 2c149c165c2 <= 0
z97z165z2 - 2c97c165c2 <= 0
z1z165z2 - 2c1c165c2 <= 0
z10z165z2 - 2c10c165c2 <= 0
z112z165z2 - 2c112c165c2 <= 0
v6v112v3 - 1d6d112d3 <= 0
v80v10v2 - 1d80d10d2 <= 0
v80v112v2 - 1d80d112d2 <= 0
v80v112v3 - 1d80d112d3 <= 0
v80v165v2 - 2d80d165d2 <= 0
v86v10v1 - 1d86d10d1 <= 0
v86v10v2 - 1d86d10d2 <= 0
v86v112v2 - 1d86d112d2 <= 0
v86v165v2 - 2d86d165d2 <= 0
v107v10v2 - 1d107d10d2 <= 0
v107v112v2 - 1d107d112d2 <= 0
v107v112v3 - 1d107d112d3 <= 0
v107v165v2 - 2d107d165d2 <= 0
v126v10v1 - 1d126d10d1 <= 0
v126v10v2 - 1d126d10d2 <= 0
v126v112v2 - 1d126d112d2 <= 0
v126v165v2 - 2d126d165d2 <= 0
v41v10v1 - 1d41d10d1 <= 0
v9v10v1 - 1d9d10d1 <= 0
v9v112v3 - 1d9d112d3 <= 0
v149v10v2 - 1d149d10d2 <= 0
v149v112v2 - 1d149d112d2 <= 0
v149v112v3 - 1d149d112d3 <= 0
v149v165v2 - 2d149d165d2 <= 0
v97v10v1 - 1d97d10d1 <= 0
v97v10v2 - 1d97d10d2 <= 0
v97v112v2 - 1d97d112d2 <= 0
v97v165v2 - 2d97d165d2 <= 0
v152v112v3 - 1d152d112d3 <= 0
v1v10v1 - 1d1d10d1 <= 0
v1v10v2 - 1d1d10d2 <= 0
v1v112v2 - 1d1d112d2 <= 0
v1v165v2 - 2d1d165d2 <= 0
v10v165v2 - 2d10d165d2 <= 0
v112v10v2 - 1d112d10d2 <= 0
v112v165v2 - 2d112d165d2 <= 0

Bounds
s6 = 4.003198
t6 = 4.003198
u6 = 4.003198
r6 = 4.003198
s80 = 4.321012
t80 = 4.321012
u80 = 4.321012
r80 = 4.321012
s86 = 4.573008
t86 = 4.573008
u86 = 4.573008
r86 = 4.573008
s107 = 5.669428
t107 = 5.669428
u107 = 5.669428
r107 = 5.669428
s126 = 4.968991
t126 = 4.968991
u126 = 4.968991
r126 = 4.968991
s41 = 4.950740
t41 = 4.950740
u41 = 4.950740
r41 = 4.950740
s9 = 5.048363
t9 = 5.048363
u9 = 5.048363
r9 = 5.048363
s149 = 5.710772
t149 = 5.710772
u149 = 5.710772
r149 = 5.710772
s97 = 5.311455
t97 = 5.311455
u97 = 5.311455
r97 = 5.311455
s152 = 3.535140
t152 = 3.535140
u152 = 3.535140
r152 = 3.535140
5.24 <= s1 <= 6.24
5.58 <= s10 <= 6.58
5.43 <= s112 <= 6.43
5.78 <= s165 <= 6.14

5.24 <= t1 <= 6.24
0.00 <= t10 <= 20.00
0.00 <= t112 <= 20.00
0.00 <= t165 <= 20.00

0.00 <= u1 <= 20.00
0.00 <= u10 <= 20.00
0.00 <= u112 <= 20.00
5.14 <= u165 <= 6.14

0.00 <= r1 <= 20.00
5.58 <= r10 <= 6.58
5.43 <= r112 <= 6.43
5.78 <= r165 <= 6.78

General
x6x112x3 
x80x1x2 x80x10x2 x80x112x2 x80x112x3 x80x165x2 
x86x1x1 x86x1x2 x86x10x1 x86x10x2 x86x112x2 x86x165x2 
x107x1x2 x107x10x2 x107x112x2 x107x112x3 x107x165x2 
x126x1x1 x126x1x2 x126x10x1 x126x10x2 x126x112x2 x126x165x2 
x41x1x1 x41x10x1 
x9x1x1 x9x10x1 x9x112x3 
x149x1x2 x149x10x2 x149x112x2 x149x112x3 x149x165x2 
x97x1x1 x97x1x2 x97x10x1 x97x10x2 x97x112x2 x97x165x2 
x152x112x3 
x112x10x2 

y80y1y2 
y86y1y1 y86y1y2 
y107y1y2 
y126y1y1 y126y1y2 
y41y1y1 
y9y1y1 
y149y1y2 
y97y1y1 y97y1y2 
y10y1y1 y10y1y2 
y112y1y2 
y165y1y2 

z80z165z2 
z86z165z2 
z107z165z2 
z126z165z2 
z149z165z2 
z97z165z2 
z1z165z2 
z10z165z2 
z112z165z2 

v6v112v3 
v80v10v2 v80v112v2 v80v112v3 v80v165v2 
v86v10v1 v86v10v2 v86v112v2 v86v165v2 
v107v10v2 v107v112v2 v107v112v3 v107v165v2 
v126v10v1 v126v10v2 v126v112v2 v126v165v2 
v41v10v1 
v9v10v1 v9v112v3 
v149v10v2 v149v112v2 v149v112v3 v149v165v2 
v97v10v1 v97v10v2 v97v112v2 v97v165v2 
v152v112v3 
v1v10v1 v1v10v2 v1v112v2 v1v165v2 
v10v165v2 
v112v10v2 v112v165v2 

Binaries
X1 X10 X112 X165 
Y1 
Z165 
V10 V112 V165 

w1 w10 w112 w165 

a6a112a3 
a80a1a2 a80a10a2 a80a112a2 a80a112a3 a80a165a2 
a86a1a1 a86a1a2 a86a10a1 a86a10a2 a86a112a2 a86a165a2 
a107a1a2 a107a10a2 a107a112a2 a107a112a3 a107a165a2 
a126a1a1 a126a1a2 a126a10a1 a126a10a2 a126a112a2 a126a165a2 
a41a1a1 a41a10a1 
a9a1a1 a9a10a1 a9a112a3 
a149a1a2 a149a10a2 a149a112a2 a149a112a3 a149a165a2 
a97a1a1 a97a1a2 a97a10a1 a97a10a2 a97a112a2 a97a165a2 
a152a112a3 
a112a10a2 

b80b1b2 
b86b1b1 b86b1b2 
b107b1b2 
b126b1b1 b126b1b2 
b41b1b1 
b9b1b1 
b149b1b2 
b97b1b1 b97b1b2 
b10b1b1 b10b1b2 
b112b1b2 
b165b1b2 

c80c165c2 
c86c165c2 
c107c165c2 
c126c165c2 
c149c165c2 
c97c165c2 
c1c165c2 
c10c165c2 
c112c165c2 

d6d112d3 
d80d10d2 d80d112d2 d80d112d3 d80d165d2 
d86d10d1 d86d10d2 d86d112d2 d86d165d2 
d107d10d2 d107d112d2 d107d112d3 d107d165d2 
d126d10d1 d126d10d2 d126d112d2 d126d165d2 
d41d10d1 
d9d10d1 d9d112d3 
d149d10d2 d149d112d2 d149d112d3 d149d165d2 
d97d10d1 d97d10d2 d97d112d2 d97d165d2 
d152d112d3 
d1d10d1 d1d10d2 d1d112d2 d1d165d2 
d10d165d2 
d112d10d2 d112d165d2 

End